c defined variables: 21 22 23 24 25 26 27 28 29 30 31 32 33 34 35 36 37 38 39 40 41 42 43 44 45 46 47 48 49 50 51 54 55 56 57 58 59 60 61 62 63 64 65 66 67 68 69 70 71 72 73 74 75 76 77 78 79 80 81 82 83 84 85 86 87 88 89 90 91 92 93 94 95 96 97 98 99 100 101 102 103 104 105 106 107 108 109 110 111 112 113 115 116 117 118 119 120 121 122 123 124 125 126 127 128 129 130 131 132 133 134 135 136 
p cnf 593 894
a 1 3 4 5 6 7 8 9 10 11 12 13 14 15 16 17 18 0
e 52 53 114 21 22 23 24 25 26 27 28 29 30 31 32 33 34 35 36 37 38 39 40 41 42 43 44 45 46 47 48 49 50 51 54 55 56 57 58 59 60 61 62 63 64 65 66 67 68 69 70 71 72 73 74 75 76 77 78 79 80 81 82 83 84 85 86 87 88 89 90 91 92 93 94 95 96 97 98 99 100 101 102 103 104 105 106 107 108 109 110 111 112 113 115 116 117 118 119 120 121 122 123 124 125 126 127 128 129 130 131 132 133 134 135 136 487 488 489 490 491 492 493 494 495 496 497 498 499 500 501 502 503 504 505 506 507 508 509 510 511 512 513 514 515 516 517 518 519 520 521 522 523 524 525 526 527 528 529 530 531 532 533 534 535 536 537 538 539 540 541 542 543 544 545 546 547 548 549 550 551 552 553 554 555 556 557 558 559 560 561 562 563 564 565 566 567 568 569 570 571 572 573 574 575 576 577 578 579 580 581 582 583 584 585 586 587 588 589 590 591 592 593 0
d 2 1 3 4 5 6 7 8 9 10 0
d 19 3 4 5 6 7 8 9 10 0
d 20 11 12 13 14 15 16 17 18 0
488 -21 0
-488 21 0
489 -22 0
-489 22 0
490 -23 0
-490 23 0
491 -24 0
-491 24 0
492 -25 0
-492 25 0
493 -26 0
-493 26 0
494 -27 0
-494 27 0
495 -28 0
-495 28 0
496 -29 0
-496 29 0
497 -30 0
-497 30 0
498 -31 0
-498 31 0
499 -32 0
-499 32 0
500 -33 0
-500 33 0
501 -34 0
-501 34 0
502 -35 0
-502 35 0
503 -36 0
-503 36 0
504 -37 0
-504 37 0
505 -38 0
-505 38 0
506 -39 0
-506 39 0
507 -40 0
-507 40 0
508 -41 0
-508 41 0
509 -42 0
-509 42 0
510 -43 0
-510 43 0
511 -44 0
-511 44 0
512 -45 0
-512 45 0
513 -46 0
-513 46 0
514 -47 0
-514 47 0
515 -48 0
-515 48 0
516 -49 0
-516 49 0
517 -50 0
-517 50 0
518 -51 0
-518 51 0
519 -54 0
-519 54 0
-487 -55 0
487 55 0
520 -56 0
-520 56 0
521 -57 0
-521 57 0
522 -58 0
-522 58 0
-523 -59 0
523 59 0
524 -60 0
-524 60 0
525 -61 0
-525 61 0
526 -62 0
-526 62 0
527 -63 0
-527 63 0
528 -64 0
-528 64 0
529 -65 0
-529 65 0
530 -66 0
-530 66 0
531 -67 0
-531 67 0
532 -68 0
-532 68 0
533 -69 0
-533 69 0
534 -70 0
-534 70 0
535 -71 0
-535 71 0
536 -72 0
-536 72 0
537 -73 0
-537 73 0
538 -74 0
-538 74 0
539 -75 0
-539 75 0
540 -76 0
-540 76 0
541 -77 0
-541 77 0
542 -78 0
-542 78 0
543 -79 0
-543 79 0
544 -80 0
-544 80 0
545 -81 0
-545 81 0
546 -82 0
-546 82 0
547 -83 0
-547 83 0
548 -84 0
-548 84 0
549 -85 0
-549 85 0
550 -86 0
-550 86 0
551 -87 0
-551 87 0
552 -88 0
-552 88 0
553 -89 0
-553 89 0
554 -90 0
-554 90 0
555 -91 0
-555 91 0
556 -92 0
-556 92 0
557 -93 0
-557 93 0
558 -94 0
-558 94 0
559 -95 0
-559 95 0
560 -96 0
-560 96 0
561 -97 0
-561 97 0
562 -98 0
-562 98 0
563 -99 0
-563 99 0
564 -100 0
-564 100 0
565 -101 0
-565 101 0
566 -102 0
-566 102 0
567 -103 0
-567 103 0
568 -104 0
-568 104 0
569 -105 0
-569 105 0
570 -106 0
-570 106 0
571 -107 0
-571 107 0
572 -108 0
-572 108 0
573 -109 0
-573 109 0
574 -110 0
-574 110 0
575 -111 0
-575 111 0
576 -112 0
-576 112 0
577 -113 0
-577 113 0
578 -115 0
-578 115 0
579 -116 0
-579 116 0
580 -117 0
-580 117 0
581 -118 0
-581 118 0
582 -119 0
-582 119 0
583 -120 0
-583 120 0
584 -121 0
-584 121 0
585 -122 0
-585 122 0
-487 -123 0
487 123 0
586 -124 0
-586 124 0
-487 -125 0
487 125 0
587 -126 0
-587 126 0
588 -127 0
-588 127 0
589 -128 0
-589 128 0
590 -129 0
-590 129 0
591 -130 0
-591 130 0
592 -131 0
-592 131 0
593 -132 0
-593 132 0
-487 -133 0
487 133 0
487 -134 0
-487 134 0
487 -135 0
-487 135 0
487 -136 0
-487 136 0
-21 -11 0
-21 3 0
21 11 -3 0
-22 11 0
-22 -3 0
22 -11 3 0
-23 -21 0
-23 -22 0
23 21 22 0
-24 -12 0
-24 4 0
24 12 -4 0
-25 12 0
-25 -4 0
25 -12 4 0
-26 -24 0
-26 -25 0
26 24 25 0
-27 23 0
-27 26 0
27 -23 -26 0
-28 -13 0
-28 5 0
28 13 -5 0
-29 13 0
-29 -5 0
29 -13 5 0
-30 -28 0
-30 -29 0
30 28 29 0
-31 -14 0
-31 6 0
31 14 -6 0
-32 14 0
-32 -6 0
32 -14 6 0
-33 -31 0
-33 -32 0
33 31 32 0
-34 30 0
-34 33 0
34 -30 -33 0
-35 27 0
-35 34 0
35 -27 -34 0
-36 -15 0
-36 7 0
36 15 -7 0
-37 15 0
-37 -7 0
37 -15 7 0
-38 -36 0
-38 -37 0
38 36 37 0
-39 -16 0
-39 8 0
39 16 -8 0
-40 16 0
-40 -8 0
40 -16 8 0
-41 -39 0
-41 -40 0
41 39 40 0
-42 38 0
-42 41 0
42 -38 -41 0
-43 -17 0
-43 9 0
43 17 -9 0
-44 17 0
-44 -9 0
44 -17 9 0
-45 -43 0
-45 -44 0
45 43 44 0
-46 -18 0
-46 10 0
46 18 -10 0
-47 18 0
-47 -10 0
47 -18 10 0
-48 -46 0
-48 -47 0
48 46 47 0
-49 45 0
-49 48 0
49 -45 -48 0
-50 42 0
-50 49 0
50 -42 -49 0
-51 35 0
-51 50 0
51 -35 -50 0
-52 20 0
-52 -19 0
52 -20 19 0
-53 -20 0
-53 19 0
53 20 -19 0
-54 -52 0
-54 -53 0
54 52 53 0
-55 51 0
-55 -54 0
55 -51 54 0
-56 4 0
-56 3 0
56 -4 -3 0
-57 -1 0
-57 56 0
57 1 -56 0
-58 1 0
-58 -56 0
58 -1 56 0
59 -57 0
59 -58 0
-59 57 58 0
-60 -12 0
-60 -59 0
60 12 59 0
-61 12 0
-61 59 0
61 -12 -59 0
-62 -60 0
-62 -61 0
62 60 61 0
-63 11 0
-63 62 0
63 -11 -62 0
-64 5 0
-64 3 0
64 -5 -3 0
-65 -64 0
-65 57 0
65 64 -57 0
-66 64 0
-66 -57 0
66 -64 57 0
-67 -65 0
-67 -66 0
67 65 66 0
-68 -13 0
-68 -67 0
68 13 67 0
-69 13 0
-69 67 0
69 -13 -67 0
-70 -68 0
-70 -69 0
70 68 69 0
-71 6 0
-71 3 0
71 -6 -3 0
-72 4 0
-72 64 0
72 -4 -64 0
-73 -1 0
-73 72 0
73 1 -72 0
-74 -71 0
-74 73 0
74 71 -73 0
-75 71 0
-75 -73 0
75 -71 73 0
-76 -74 0
-76 -75 0
76 74 75 0
-77 -14 0
-77 -76 0
77 14 76 0
-78 14 0
-78 76 0
78 -14 -76 0
-79 -77 0
-79 -78 0
79 77 78 0
-80 70 0
-80 79 0
80 -70 -79 0
-81 63 0
-81 80 0
81 -63 -80 0
-82 7 0
-82 3 0
82 -7 -3 0
-83 72 0
-83 71 0
83 -72 -71 0
-84 -1 0
-84 83 0
84 1 -83 0
-85 -82 0
-85 84 0
85 82 -84 0
-86 82 0
-86 -84 0
86 -82 84 0
-87 -85 0
-87 -86 0
87 85 86 0
-88 -15 0
-88 -87 0
88 15 87 0
-89 15 0
-89 87 0
89 -15 -87 0
-90 -88 0
-90 -89 0
90 88 89 0
-91 8 0
-91 3 0
91 -8 -3 0
-92 83 0
-92 82 0
92 -83 -82 0
-93 -1 0
-93 92 0
93 1 -92 0
-94 -91 0
-94 93 0
94 91 -93 0
-95 91 0
-95 -93 0
95 -91 93 0
-96 -94 0
-96 -95 0
96 94 95 0
-97 -16 0
-97 -96 0
97 16 96 0
-98 16 0
-98 96 0
98 -16 -96 0
-99 -97 0
-99 -98 0
99 97 98 0
-100 90 0
-100 99 0
100 -90 -99 0
-101 9 0
-101 3 0
101 -9 -3 0
-102 92 0
-102 91 0
102 -92 -91 0
-103 -1 0
-103 102 0
103 1 -102 0
-104 -101 0
-104 103 0
104 101 -103 0
-105 101 0
-105 -103 0
105 -101 103 0
-106 -104 0
-106 -105 0
106 104 105 0
-107 -17 0
-107 -106 0
107 17 106 0
-108 17 0
-108 106 0
108 -17 -106 0
-109 -107 0
-109 -108 0
109 107 108 0
-110 10 0
-110 3 0
110 -10 -3 0
-111 102 0
-111 101 0
111 -102 -101 0
-112 -1 0
-112 111 0
112 1 -111 0
-113 -110 0
-113 -112 0
113 110 112 0
-114 -2 0
-114 -110 0
114 2 110 0
-115 112 0
-115 -114 0
115 -112 114 0
-116 -113 0
-116 -115 0
116 113 115 0
-117 -18 0
-117 116 0
117 18 -116 0
-118 18 0
-118 -116 0
118 -18 116 0
-119 -117 0
-119 -118 0
119 117 118 0
-120 109 0
-120 119 0
120 -109 -119 0
-121 100 0
-121 120 0
121 -100 -120 0
-122 81 0
-122 121 0
122 -81 -121 0
-123 122 0
-123 53 0
123 -122 -53 0
-124 111 0
-124 110 0
124 -111 -110 0
-125 19 0
-125 124 0
125 -19 -124 0
-126 -4 0
-126 -3 0
126 4 3 0
-127 -6 0
-127 -5 0
127 6 5 0
-128 126 0
-128 127 0
128 -126 -127 0
-129 -8 0
-129 -7 0
129 8 7 0
-130 -10 0
-130 -9 0
130 10 9 0
-131 129 0
-131 130 0
131 -129 -130 0
-132 128 0
-132 131 0
132 -128 -131 0
-133 -19 0
-133 132 0
133 19 -132 0
-134 -125 0
-134 -133 0
134 125 133 0
-135 -123 0
-135 134 0
135 123 -134 0
-136 -55 0
-136 135 0
136 55 -135 0
136 0
487 0
3 -488 0
-11 -488 0
-3 11 488 0
-3 -489 0
11 -489 0
3 -11 489 0
-21 -490 0
-22 -490 0
21 22 490 0
4 -491 0
-12 -491 0
-4 12 491 0
-4 -492 0
12 -492 0
4 -12 492 0
-24 -493 0
-25 -493 0
24 25 493 0
23 -494 0
26 -494 0
-23 -26 494 0
5 -495 0
-13 -495 0
-5 13 495 0
-5 -496 0
13 -496 0
5 -13 496 0
-28 -497 0
-29 -497 0
28 29 497 0
6 -498 0
-14 -498 0
-6 14 498 0
-6 -499 0
14 -499 0
6 -14 499 0
-31 -500 0
-32 -500 0
31 32 500 0
30 -501 0
33 -501 0
-30 -33 501 0
27 -502 0
34 -502 0
-27 -34 502 0
7 -503 0
-15 -503 0
-7 15 503 0
-7 -504 0
15 -504 0
7 -15 504 0
-36 -505 0
-37 -505 0
36 37 505 0
8 -506 0
-16 -506 0
-8 16 506 0
-8 -507 0
16 -507 0
8 -16 507 0
-39 -508 0
-40 -508 0
39 40 508 0
38 -509 0
41 -509 0
-38 -41 509 0
9 -510 0
-17 -510 0
-9 17 510 0
-9 -511 0
17 -511 0
9 -17 511 0
-43 -512 0
-44 -512 0
43 44 512 0
10 -513 0
-18 -513 0
-10 18 513 0
-10 -514 0
18 -514 0
10 -18 514 0
-46 -515 0
-47 -515 0
46 47 515 0
45 -516 0
48 -516 0
-45 -48 516 0
42 -517 0
49 -517 0
-42 -49 517 0
35 -518 0
50 -518 0
-35 -50 518 0
-52 -519 0
-53 -519 0
52 53 519 0
3 -520 0
4 -520 0
-3 -4 520 0
-1 -521 0
56 -521 0
1 -56 521 0
1 -522 0
-56 -522 0
-1 56 522 0
-57 -523 0
-58 -523 0
57 58 523 0
-12 -524 0
-59 -524 0
12 59 524 0
12 -525 0
59 -525 0
-12 -59 525 0
-60 -526 0
-61 -526 0
60 61 526 0
11 -527 0
62 -527 0
-11 -62 527 0
3 -528 0
5 -528 0
-3 -5 528 0
57 -529 0
-64 -529 0
-57 64 529 0
-57 -530 0
64 -530 0
57 -64 530 0
-65 -531 0
-66 -531 0
65 66 531 0
-13 -532 0
-67 -532 0
13 67 532 0
13 -533 0
67 -533 0
-13 -67 533 0
-68 -534 0
-69 -534 0
68 69 534 0
3 -535 0
6 -535 0
-3 -6 535 0
4 -536 0
64 -536 0
-4 -64 536 0
-1 -537 0
72 -537 0
1 -72 537 0
-71 -538 0
73 -538 0
71 -73 538 0
71 -539 0
-73 -539 0
-71 73 539 0
-74 -540 0
-75 -540 0
74 75 540 0
-14 -541 0
-76 -541 0
14 76 541 0
14 -542 0
76 -542 0
-14 -76 542 0
-77 -543 0
-78 -543 0
77 78 543 0
70 -544 0
79 -544 0
-70 -79 544 0
63 -545 0
80 -545 0
-63 -80 545 0
3 -546 0
7 -546 0
-3 -7 546 0
71 -547 0
72 -547 0
-71 -72 547 0
-1 -548 0
83 -548 0
1 -83 548 0
-82 -549 0
84 -549 0
82 -84 549 0
82 -550 0
-84 -550 0
-82 84 550 0
-85 -551 0
-86 -551 0
85 86 551 0
-15 -552 0
-87 -552 0
15 87 552 0
15 -553 0
87 -553 0
-15 -87 553 0
-88 -554 0
-89 -554 0
88 89 554 0
3 -555 0
8 -555 0
-3 -8 555 0
82 -556 0
83 -556 0
-82 -83 556 0
-1 -557 0
92 -557 0
1 -92 557 0
-91 -558 0
93 -558 0
91 -93 558 0
91 -559 0
-93 -559 0
-91 93 559 0
-94 -560 0
-95 -560 0
94 95 560 0
-16 -561 0
-96 -561 0
16 96 561 0
16 -562 0
96 -562 0
-16 -96 562 0
-97 -563 0
-98 -563 0
97 98 563 0
90 -564 0
99 -564 0
-90 -99 564 0
3 -565 0
9 -565 0
-3 -9 565 0
91 -566 0
92 -566 0
-91 -92 566 0
-1 -567 0
102 -567 0
1 -102 567 0
-101 -568 0
103 -568 0
101 -103 568 0
101 -569 0
-103 -569 0
-101 103 569 0
-104 -570 0
-105 -570 0
104 105 570 0
-17 -571 0
-106 -571 0
17 106 571 0
17 -572 0
106 -572 0
-17 -106 572 0
-107 -573 0
-108 -573 0
107 108 573 0
3 -574 0
10 -574 0
-3 -10 574 0
101 -575 0
102 -575 0
-101 -102 575 0
-1 -576 0
111 -576 0
1 -111 576 0
-110 -577 0
-112 -577 0
110 112 577 0
112 -578 0
-114 -578 0
-112 114 578 0
-113 -579 0
-115 -579 0
113 115 579 0
-18 -580 0
116 -580 0
18 -116 580 0
18 -581 0
-116 -581 0
-18 116 581 0
-117 -582 0
-118 -582 0
117 118 582 0
109 -583 0
119 -583 0
-109 -119 583 0
100 -584 0
120 -584 0
-100 -120 584 0
81 -585 0
121 -585 0
-81 -121 585 0
110 -586 0
111 -586 0
-110 -111 586 0
-3 -587 0
-4 -587 0
3 4 587 0
-5 -588 0
-6 -588 0
5 6 588 0
126 -589 0
127 -589 0
-126 -127 589 0
-7 -590 0
-8 -590 0
7 8 590 0
-9 -591 0
-10 -591 0
9 10 591 0
129 -592 0
130 -592 0
-129 -130 592 0
128 -593 0
131 -593 0
-128 -131 593 0
